c User generated cnf file
p cnf 9 23
-1 7 6 0 
9 -1 2 0 
-4 3 1 0 
4 2 -1 0 
4 3 -2 0 
7 -3 4 0 
-1 9 2 0 
-2 7 8 0 
-7 8 7 0 
8 -2 9 0 
7 -6 1 0 
3 -4 1 0 
-8 9 3 0 
-2 1 1 0 
7 9 -3 0 
5 4 -4 0 
7 1 -7 0 
-8 3 4 0 
-6 4 2 0 
6 3 -5 0 
9 -9 8 0 
-3 9 1 0 
9 -5 6 0 
